clingo version 5.5.2
Reading from ...nt/beegfs/home/jubruns/encoding/mif.lp ...
Solving...
Answer: 1
move(1,(8,15),(8,14),1) move(1,(8,14),(8,13),2) move(1,(8,13),(9,13),3) move(1,(9,13),(10,13),4) move(1,(10,13),(11,13),5) move(1,(11,13),(11,12),6) move(1,(11,12),(11,11),7) move(1,(11,11),(10,11),8) move(1,(10,11),(10,10),9) move(1,(10,10),(10,9),10) move(1,(10,9),(10,8),11) move(1,(10,8),(9,8),12) move(1,(9,8),(9,7),13) move(1,(9,7),(9,6),14) move(1,(9,6),(9,5),15) move(1,(9,5),(9,4),16) move(1,(9,4),(9,3),17) move(1,(9,3),(9,2),18) move(1,(9,2),(10,2),19) move(2,(14,4),(14,5),3) move(2,(14,5),(14,4),4) move(2,(14,4),(14,5),5) move(2,(14,5),(14,4),6) move(2,(14,4),(14,5),7) move(2,(14,5),(14,4),8) move(2,(14,4),(14,5),9) move(2,(14,5),(14,4),10) move(2,(14,4),(14,5),11) move(2,(14,5),(14,4),12) move(2,(14,4),(14,5),13) move(2,(14,5),(14,4),14) move(2,(14,4),(14,5),15) move(2,(14,5),(14,4),18) move(2,(14,4),(14,5),19) move(3,(12,4),(13,4),6) move(3,(13,4),(13,5),7) move(3,(13,5),(14,5),8) move(3,(14,5),(14,6),9) move(3,(14,6),(14,7),10) move(3,(14,7),(13,7),11) move(3,(13,7),(12,7),12)
SATISFIABLE

Models       : 1+
Calls        : 1
Time         : 0.353s (Solving: 0.02s 1st Model: 0.02s Unsat: 0.00s)
CPU Time     : 0.326s

Choices      : 136      (Domain: 136)
Conflicts    : 3        (Analyzed: 3)
Restarts     : 0       
Model-Level  : 37.0    
Problems     : 1        (Average Length: 0.00 Splits: 0)
Lemmas       : 3        (Deleted: 0)
  Binary     : 0        (Ratio:   0.00%)
  Ternary    : 0        (Ratio:   0.00%)
  Conflict   : 3        (Average Length:    1.0 Ratio: 100.00%) 
  Loop       : 0        (Average Length:    0.0 Ratio:   0.00%) 
  Other      : 0        (Average Length:    0.0 Ratio:   0.00%) 
Backjumps    : 3        (Average: 33.00 Max:  36 Sum:     99)
  Executed   : 3        (Average: 33.00 Max:  36 Sum:     99 Ratio: 100.00%)
  Bounded    : 0        (Average:  0.00 Max:   0 Sum:      0 Ratio:   0.00%)

Rules        : 127475   (Original: 93080)
  Choice     : 57      
  Heuristic  : 4053     (Original: 4068)
Atoms        : 64190    (Original: 49616 Auxiliary: 14574)
Bodies       : 74113    (Original: 54337)
  Count      : 51       (Original: 760)
Equivalences : 36611    (Atom=Atom: 65 Body=Body: 69 Other: 36477)
Tight        : Yes
Variables    : 76381    (Eliminated:    0 Frozen: 28764)
Constraints  : 181799   (Binary:  81.1% Ternary:  11.3% Other:   7.6%)

